(set-option :produce-models true); benchmark generated from python API
(set-info :status unknown)
(declare-fun l_0_0_8 () Real)
(declare-fun l_0_0_7 () Real)
(declare-fun _a_0_ () Real)
(declare-fun l_0_0_9 () Real)
(declare-fun _a_1_ () Real)
(declare-fun l_0_0_3 () Real)
(declare-fun l_0_0_2 () Real)
(declare-fun _a_2_ () Real)
(declare-fun l_0_0_11 () Real)
(declare-fun l_0_0_10 () Real)
(declare-fun _a_3_ () Real)
(declare-fun l_0_0_5 () Real)
(declare-fun l_0_0_4 () Real)
(declare-fun l_0_0_12 () Real)
(declare-fun _a_4_ () Real)
(declare-fun l_0_0_1 () Real)
(declare-fun _a_5_ () Real)
(declare-fun l_0_0_6 () Real)
(declare-fun l_0_1_9 () Real)
(declare-fun l_0_1_8 () Real)
(declare-fun l_0_1_15 () Real)
(declare-fun l_0_1_14 () Real)
(declare-fun l_0_1_3 () Real)
(declare-fun l_0_1_2 () Real)
(declare-fun l_0_1_7 () Real)
(declare-fun l_0_1_13 () Real)
(declare-fun l_0_1_1 () Real)
(declare-fun l_0_1_18 () Real)
(declare-fun l_0_1_17 () Real)
(declare-fun l_0_1_16 () Real)
(declare-fun l_0_1_12 () Real)
(declare-fun l_0_1_11 () Real)
(declare-fun l_0_1_10 () Real)
(declare-fun l_0_1_5 () Real)
(declare-fun l_0_1_4 () Real)
(declare-fun l_0_1_6 () Real)
(declare-fun l_0_2_8 () Real)
(declare-fun l_0_2_7 () Real)
(declare-fun l_0_2_14 () Real)
(declare-fun l_0_2_13 () Real)
(declare-fun l_0_2_2 () Real)
(declare-fun l_0_2_1 () Real)
(declare-fun l_0_2_3 () Real)
(declare-fun l_0_2_9 () Real)
(declare-fun l_0_2_15 () Real)
(declare-fun l_0_2_17 () Real)
(declare-fun l_0_2_16 () Real)
(declare-fun l_0_2_11 () Real)
(declare-fun l_0_2_10 () Real)
(declare-fun l_0_2_5 () Real)
(declare-fun l_0_2_4 () Real)
(declare-fun l_0_2_18 () Real)
(declare-fun l_0_2_12 () Real)
(declare-fun l_0_2_6 () Real)
(assert
 (= (- _a_0_ (* (* 2.0 l_0_0_7) l_0_0_8)) 0.0))
(assert
 (= (- (- _a_1_ (* l_0_0_8 l_0_0_8)) (* l_0_0_9 l_0_0_9)) 0.0))
(assert
 (let ((?x107 (* l_0_0_7 l_0_0_7)))
 (let ((?x108 (- (+ (+ _a_2_ (* l_0_0_2 l_0_0_2)) (* l_0_0_3 l_0_0_3)) ?x107)))
 (= ?x108 0.0))))
(assert
 (let ((?x120 (- (- _a_3_ (* (* 2.0 l_0_0_10) l_0_0_8)) (* (* 2.0 l_0_0_11) l_0_0_9))))
 (let ((?x126 (- (- ?x120 (* (* 2.0 l_0_0_2) l_0_0_2)) (* (* 2.0 l_0_0_3) l_0_0_3))))
 (= ?x126 0.0))))
(assert
 (let ((?x105 (* l_0_0_3 l_0_0_3)))
 (let ((?x103 (* l_0_0_2 l_0_0_2)))
 (let ((?x155 (* l_0_0_12 l_0_0_12)))
 (let ((?x156 (- (- (- _a_4_ (* l_0_0_10 l_0_0_10)) (* l_0_0_11 l_0_0_11)) ?x155)))
 (let ((?x164 (- (+ (- ?x156 (* (* 4.0 l_0_0_2) l_0_0_4)) ?x103) (* (* 4.0 l_0_0_3) l_0_0_5))))
 (= (+ ?x164 ?x105) 0.0)))))))
(assert
 (let ((?x195 (- (- _a_5_ (* (* 4.0 l_0_0_1) l_0_0_2)) (* (* 2.0 l_0_0_10) l_0_0_7))))
 (= ?x195 0.0)))
(assert
 (let ((?x210 (* l_0_0_1 l_0_0_1)))
 (= ?x210 0.0)))
(assert
 (let ((?x212 (* 2.0 l_0_0_1)))
 (let ((?x213 (* ?x212 l_0_0_2)))
 (= ?x213 0.0))))
(assert
 (= (* (* 2.0 l_0_0_1) l_0_0_4) 0.0))
(assert
 (let ((?x124 (* 2.0 l_0_0_3)))
 (let ((?x224 (* ?x124 l_0_0_5)))
 (let ((?x121 (* 2.0 l_0_0_2)))
 (let ((?x222 (* ?x121 l_0_0_4)))
 (= (+ (+ (* (* (- 2.0) l_0_0_1) l_0_0_1) ?x222) ?x224) 0.0))))))
(assert
 (let ((?x236 (* l_0_0_6 l_0_0_6)))
 (let ((?x234 (* l_0_0_5 l_0_0_5)))
 (= (+ (+ (+ (* l_0_0_1 l_0_0_1) (* l_0_0_4 l_0_0_4)) ?x234) ?x236) 0.0))))
(assert
 (let ((?x212 (* 2.0 l_0_0_1)))
 (let ((?x213 (* ?x212 l_0_0_2)))
 (= (- ?x213 (* (* 4.0 l_0_0_1) l_0_0_4)) 0.0))))
(assert
 (= (* (* 2.0 l_0_0_1) l_0_0_4) 0.0))
(assert
 (let ((?x124 (* 2.0 l_0_0_3)))
 (let ((?x224 (* ?x124 l_0_0_5)))
 (let ((?x121 (* 2.0 l_0_0_2)))
 (let ((?x222 (* ?x121 l_0_0_4)))
 (let ((?x257 (- (- (+ ?x222 ?x224) (* (* 2.0 l_0_0_4) l_0_0_4)) (* (* 2.0 l_0_0_5) l_0_0_5))))
 (= (- ?x257 (* (* 2.0 l_0_0_6) l_0_0_6)) 0.0)))))))
(assert
 (let ((?x236 (* l_0_0_6 l_0_0_6)))
 (= (+ (+ (* l_0_0_4 l_0_0_4) (* l_0_0_5 l_0_0_5)) ?x236) 0.0)))
(assert
 (>= l_0_0_1 0.0))
(assert
 (>= l_0_0_3 0.0))
(assert
 (>= l_0_0_6 0.0))
(assert
 (>= l_0_0_7 0.0))
(assert
 (>= l_0_0_9 0.0))
(assert
 (>= l_0_0_12 0.0))
(assert
 (let ((?x297 (* l_0_1_15 l_0_1_15)))
 (let ((?x295 (* l_0_1_14 l_0_1_14)))
 (let ((?x296 (- (* (- _a_1_) (+ (* l_0_1_2 l_0_1_2) (* l_0_1_3 l_0_1_3))) ?x295)))
 (let ((?x305 (+ (+ (- ?x296 ?x297) (* 1.0 (* l_0_1_8 l_0_1_8))) (* 1.0 (* l_0_1_9 l_0_1_9)))))
 (= (+ ?x305 3.0) 0.0))))))
(assert
 (let ((?x333 (* l_0_1_13 l_0_1_13)))
 (let ((?x330 (- (* (* (* (- 2.0) _a_0_) l_0_1_1) l_0_1_2) (* (* _a_1_ l_0_1_1) l_0_1_1))))
 (let ((?x332 (- ?x330 (* _a_2_ (+ (* l_0_1_2 l_0_1_2) (* l_0_1_3 l_0_1_3))))))
 (= (- (+ (- ?x332 ?x333) (* 1.0 (* l_0_1_7 l_0_1_7))) 1.0) 0.0)))))
(assert
 (let ((?x397 (* l_0_1_18 l_0_1_18)))
 (let ((?x395 (* l_0_1_17 l_0_1_17)))
 (let ((?x393 (* l_0_1_16 l_0_1_16)))
 (let ((?x379 (+ (* (* 2.0 l_0_1_2) l_0_1_4) (* (* 2.0 l_0_1_3) l_0_1_5))))
 (let ((?x372 (* l_0_1_6 l_0_1_6)))
 (let ((?x373 (+ (+ (* l_0_1_4 l_0_1_4) (* l_0_1_5 l_0_1_5)) ?x372)))
 (let ((?x290 (- _a_1_)))
 (let ((?x383 (- (- (* ?x290 ?x373) (* _a_3_ ?x379)) (* _a_4_ (+ (* l_0_1_2 l_0_1_2) (* l_0_1_3 l_0_1_3))))))
 (let ((?x389 (+ (+ ?x383 (* 1.0 (* l_0_1_10 l_0_1_10))) (* 1.0 (* l_0_1_11 l_0_1_11)))))
 (let ((?x398 (- (- (- (+ ?x389 (* 1.0 (* l_0_1_12 l_0_1_12))) ?x393) ?x395) ?x397)))
 (= (- ?x398 1.0) 0.0))))))))))))
(assert
 (let ((?x379 (+ (* (* 2.0 l_0_1_2) l_0_1_4) (* (* 2.0 l_0_1_3) l_0_1_5))))
 (let ((?x290 (- _a_1_)))
 (let ((?x456 (- (* ?x290 ?x379) (* _a_3_ (+ (* l_0_1_2 l_0_1_2) (* l_0_1_3 l_0_1_3))))))
 (let ((?x462 (+ (+ ?x456 (* (* 2.0 l_0_1_10) l_0_1_8)) (* (* 2.0 l_0_1_11) l_0_1_9))))
 (let ((?x468 (- (- ?x462 (* (* 2.0 l_0_1_14) l_0_1_16)) (* (* 2.0 l_0_1_15) l_0_1_17))))
 (= (+ ?x468 2.0) 0.0)))))))
(assert
 (let ((?x516 (- (* (* (- _a_0_) l_0_1_1) l_0_1_1) (* (* (* 2.0 _a_2_) l_0_1_1) l_0_1_2))))
 (= ?x516 0.0)))
(assert
 (let ((?x379 (+ (* (* 2.0 l_0_1_2) l_0_1_4) (* (* 2.0 l_0_1_3) l_0_1_5))))
 (let ((?x534 (- (- (* (* (* (- 2.0) _a_0_) l_0_1_1) l_0_1_4) (* _a_2_ ?x379)) (* (* _a_3_ l_0_1_1) l_0_1_1))))
 (= (- ?x534 (* (* (* 2.0 _a_5_) l_0_1_1) l_0_1_2)) 0.0))))
(assert
 (let ((?x578 (- (* (- _a_0_) (+ (* l_0_1_2 l_0_1_2) (* l_0_1_3 l_0_1_3))) (* (* (* 2.0 _a_1_) l_0_1_1) l_0_1_2))))
 (let ((?x584 (+ (- ?x578 (* (* 2.0 l_0_1_13) l_0_1_14)) (* (* 2.0 l_0_1_7) l_0_1_8))))
 (= ?x584 0.0))))
(assert
 (let ((?x379 (+ (* (* 2.0 l_0_1_2) l_0_1_4) (* (* 2.0 l_0_1_3) l_0_1_5))))
 (let ((?x506 (- _a_0_)))
 (let ((?x613 (- (- (* ?x506 ?x379) (* (* (* 2.0 _a_1_) l_0_1_1) l_0_1_4)) (* (* (* 2.0 _a_3_) l_0_1_1) l_0_1_2))))
 (let ((?x615 (- ?x613 (* _a_5_ (+ (* l_0_1_2 l_0_1_2) (* l_0_1_3 l_0_1_3))))))
 (let ((?x619 (- (+ ?x615 (* (* 2.0 l_0_1_10) l_0_1_7)) (* (* 2.0 l_0_1_13) l_0_1_16))))
 (= ?x619 0.0)))))))
(assert
 (let ((?x379 (+ (* (* 2.0 l_0_1_2) l_0_1_4) (* (* 2.0 l_0_1_3) l_0_1_5))))
 (let ((?x372 (* l_0_1_6 l_0_1_6)))
 (let ((?x373 (+ (+ (* l_0_1_4 l_0_1_4) (* l_0_1_5 l_0_1_5)) ?x372)))
 (let ((?x506 (- _a_0_)))
 (let ((?x669 (- (- (* ?x506 ?x373) (* (* (* 2.0 _a_3_) l_0_1_1) l_0_1_4)) (* (* (* 2.0 _a_4_) l_0_1_1) l_0_1_2))))
 (= (- ?x669 (* _a_5_ ?x379)) 0.0)))))))
(assert
 (= (* (* (- _a_2_) l_0_1_1) l_0_1_1) 0.0))
(assert
 (let ((?x725 (- (* (* (* (- 2.0) _a_2_) l_0_1_1) l_0_1_4) (* (* _a_5_ l_0_1_1) l_0_1_1))))
 (= ?x725 0.0)))
(assert
 (let ((?x372 (* l_0_1_6 l_0_1_6)))
 (let ((?x373 (+ (+ (* l_0_1_4 l_0_1_4) (* l_0_1_5 l_0_1_5)) ?x372)))
 (let ((?x713 (- _a_2_)))
 (let ((?x741 (- (- (* ?x713 ?x373) (* (* _a_4_ l_0_1_1) l_0_1_1)) (* (* (* 2.0 _a_5_) l_0_1_1) l_0_1_4))))
 (= ?x741 0.0))))))
(assert
 (let ((?x379 (+ (* (* 2.0 l_0_1_2) l_0_1_4) (* (* 2.0 l_0_1_3) l_0_1_5))))
 (let ((?x372 (* l_0_1_6 l_0_1_6)))
 (let ((?x373 (+ (+ (* l_0_1_4 l_0_1_4) (* l_0_1_5 l_0_1_5)) ?x372)))
 (= (- (* (- _a_3_) ?x373) (* _a_4_ ?x379)) 0.0)))))
(assert
 (let ((?x372 (* l_0_1_6 l_0_1_6)))
 (let ((?x373 (+ (+ (* l_0_1_4 l_0_1_4) (* l_0_1_5 l_0_1_5)) ?x372)))
 (= (- (* (* (* (- 2.0) _a_4_) l_0_1_1) l_0_1_4) (* _a_5_ ?x373)) 0.0))))
(assert
 (let ((?x372 (* l_0_1_6 l_0_1_6)))
 (let ((?x373 (+ (+ (* l_0_1_4 l_0_1_4) (* l_0_1_5 l_0_1_5)) ?x372)))
 (= (* (- _a_4_) ?x373) 0.0))))
(assert
 (>= l_0_1_1 0.0))
(assert
 (>= l_0_1_3 0.0))
(assert
 (>= l_0_1_6 0.0))
(assert
 (>= l_0_1_7 0.0))
(assert
 (>= l_0_1_9 0.0))
(assert
 (>= l_0_1_12 0.0))
(assert
 (>= l_0_1_13 0.0))
(assert
 (>= l_0_1_15 0.0))
(assert
 (>= l_0_1_18 0.0))
(assert
 (let ((?x861 (* (/ 2054321.0 10000000000.0) _a_5_)))
 (let ((?x858 (* (/ 5274855369.0 2500000000000000.0) _a_4_)))
 (let ((?x855 (* (/ 1036521.0 100000000.0) _a_3_)))
 (let ((?x852 (* (/ 1.0 50.0) _a_2_)))
 (let ((?x847 (+ (* (- _a_0_) (+ (* l_0_2_2 l_0_2_2) (* l_0_2_3 l_0_2_3))) _a_0_)))
 (let ((?x856 (+ (+ (- ?x847 (* (* (* 2.0 _a_1_) l_0_2_1) l_0_2_2)) ?x852) ?x855)))
 (let ((?x868 (- (- (+ (+ ?x856 ?x858) ?x861) (* (* 2.0 l_0_2_13) l_0_2_14)) (* (* 2.0 l_0_2_7) l_0_2_8))))
 (= ?x868 0.0)))))))))
(assert
 (let ((?x915 (* l_0_2_15 l_0_2_15)))
 (let ((?x913 (* l_0_2_14 l_0_2_14)))
 (let ((?x911 (* (/ 5089.0 5000000000.0) _a_5_)))
 (let ((?x908 (* (/ 25897921.0 2500000000000000.0) _a_4_)))
 (let ((?x905 (* (/ 5089.0 50000000.0) _a_3_)))
 (let ((?x902 (* (/ 1.0 10000.0) _a_2_)))
 (let ((?x897 (* (/ 1.0 100.0) _a_0_)))
 (let ((?x899 (- ?x897 (* _a_1_ (+ (* l_0_2_2 l_0_2_2) (* l_0_2_3 l_0_2_3))))))
 (let ((?x916 (- (- (+ (+ (+ (+ (+ ?x899 _a_1_) ?x902) ?x905) ?x908) ?x911) ?x913) ?x915)))
 (let ((?x922 (- (- ?x916 (* (* 1.0 l_0_2_8) l_0_2_8)) (* (* 1.0 l_0_2_9) l_0_2_9))))
 (= ?x922 0.0))))))))))))
(assert
 (let ((?x973 (* (/ 124973785829.0 12500000000000.0) _a_5_)))
 (let ((?x970 (* (/ 40707679574001.0 200000000000000000.0) _a_4_)))
 (let ((?x967 (* (/ 249973469579.0 250000000000.0) _a_3_)))
 (let ((?x962 (* (/ 5089.0 25000000.0) _a_2_)))
 (let ((?x958 (+ (* (* 2.0 l_0_2_2) l_0_2_4) (* (* 2.0 l_0_2_3) l_0_2_5))))
 (let ((?x953 (* (- (/ 5089.0 500000.0)) _a_0_)))
 (let ((?x965 (- (- (- ?x953 (* _a_1_ ?x958)) ?x962) (* _a_3_ (+ (* l_0_2_2 l_0_2_2) (* l_0_2_3 l_0_2_3))))))
 (let ((?x977 (- (+ (+ (+ ?x965 ?x967) ?x970) ?x973) (* (* 2.0 l_0_2_10) l_0_2_8))))
 (let ((?x983 (- (- ?x977 (* (* 2.0 l_0_2_11) l_0_2_9)) (* (* 2.0 l_0_2_14) l_0_2_16))))
 (= (- ?x983 (* (* 2.0 l_0_2_15) l_0_2_17)) 0.0)))))))))))
(assert
 (let ((?x1082 (* (/ 12497251686731.0 12500000000000.0) _a_5_)))
 (let ((?x1077 (* (/ 207280909786429.0 10000000000000000.0) _a_4_)))
 (let ((?x1074 (* (/ 158521169.0 250000000000.0) _a_3_)))
 (let ((?x1068 (* (/ 1036521.0 50000000.0) _a_2_)))
 (let ((?x1063 (* (/ 18721.0 1000000.0) _a_0_)))
 (let ((?x958 (+ (* (* 2.0 l_0_2_2) l_0_2_4) (* (* 2.0 l_0_2_3) l_0_2_5))))
 (let ((?x506 (- _a_0_)))
 (let ((?x1066 (- (- (* ?x506 ?x958) ?x1063) (* (* (* 2.0 _a_1_) l_0_2_1) l_0_2_4))))
 (let ((?x1075 (- (- (- ?x1066 ?x1068) (* (* (* 2.0 _a_3_) l_0_2_1) l_0_2_2)) ?x1074)))
 (let ((?x1080 (- (+ ?x1075 ?x1077) (* _a_5_ (+ (* l_0_2_2 l_0_2_2) (* l_0_2_3 l_0_2_3))))))
 (let ((?x1087 (- (- (+ ?x1080 ?x1082) (* (* 2.0 l_0_2_10) l_0_2_7)) (* (* 2.0 l_0_2_13) l_0_2_16))))
 (= ?x1087 0.0)))))))))))))
(assert
 (let ((?x1194 (* l_0_2_18 l_0_2_18)))
 (let ((?x1192 (* l_0_2_17 l_0_2_17)))
 (let ((?x1190 (* l_0_2_16 l_0_2_16)))
 (let ((?x1179 (* (/ 50884213212401.0 5000000000000000.0) _a_5_)))
 (let ((?x1176 (* (/ 12497347111777.0 12500000000000.0) _a_4_)))
 (let ((?x1171 (* (/ 1287517.0 250000000000.0) _a_3_)))
 (let ((?x958 (+ (* (* 2.0 l_0_2_2) l_0_2_4) (* (* 2.0 l_0_2_3) l_0_2_5))))
 (let ((?x1166 (* (/ 27162921.0 250000000000.0) _a_2_)))
 (let ((?x1161 (* l_0_2_6 l_0_2_6)))
 (let ((?x1162 (+ (+ (* l_0_2_4 l_0_2_4) (* l_0_2_5 l_0_2_5)) ?x1161)))
 (let ((?x1157 (* (/ 253.0 1000000.0) _a_0_)))
 (let ((?x1174 (- (+ (- (+ (- ?x1157 (* _a_1_ ?x1162)) ?x1166) (* _a_3_ ?x958)) ?x1171) (* _a_4_ (+ (* l_0_2_2 l_0_2_2) (* l_0_2_3 l_0_2_3))))))
 (let ((?x1186 (- (- (- (+ ?x1174 ?x1176) ?x1179) (* (* 1.0 l_0_2_10) l_0_2_10)) (* (* 1.0 l_0_2_11) l_0_2_11))))
 (let ((?x1195 (- (- (- (- ?x1186 (* (* 1.0 l_0_2_12) l_0_2_12)) ?x1190) ?x1192) ?x1194)))
 (= ?x1195 0.0))))))))))))))))
(assert
 (let ((?x1286 (* l_0_2_13 l_0_2_13)))
 (let ((?x1284 (* (/ 527621.0 50000000.0) _a_5_)))
 (let ((?x1281 (* (/ 1112484251041.0 10000000000000000.0) _a_4_)))
 (let ((?x1278 (* (/ 18721.0 1000000.0) _a_3_)))
 (let ((?x1274 (- (* (* (* (- 2.0) _a_0_) l_0_2_1) l_0_2_2) (* (* _a_1_ l_0_2_1) l_0_2_1))))
 (let ((?x1276 (- ?x1274 (* _a_2_ (+ (* l_0_2_2 l_0_2_2) (* l_0_2_3 l_0_2_3))))))
 (let ((?x1290 (- (- (+ (+ (+ (+ ?x1276 _a_2_) ?x1278) ?x1281) ?x1284) ?x1286) (* (* 1.0 l_0_2_7) l_0_2_7))))
 (= ?x1290 0.0)))))))))
(assert
 (let ((?x1338 (* (/ 51108943441.0 50000000000000.0) _a_5_)))
 (let ((?x1332 (* (/ 93562026018491.0 2500000000000000.0) _a_4_)))
 (let ((?x1329 (* (/ 350475841.0 1000000000000.0) _a_3_)))
 (let ((?x1323 (* (/ 18721.0 500000.0) _a_2_)))
 (let ((?x958 (+ (* (* 2.0 l_0_2_2) l_0_2_4) (* (* 2.0 l_0_2_3) l_0_2_5))))
 (let ((?x1324 (- (- (* (* (* (- 2.0) _a_0_) l_0_2_1) l_0_2_4) (* _a_2_ ?x958)) ?x1323)))
 (let ((?x1336 (- (+ (- (- ?x1324 (* (* _a_3_ l_0_2_1) l_0_2_1)) ?x1329) ?x1332) (* (* (* 2.0 _a_5_) l_0_2_1) l_0_2_2))))
 (= (- ?x1336 ?x1338) 0.0)))))))))
(assert
 (let ((?x1411 (* (/ 37409384775463.0 2000000000000000.0) _a_5_)))
 (let ((?x958 (+ (* (* 2.0 l_0_2_2) l_0_2_4) (* (* 2.0 l_0_2_3) l_0_2_5))))
 (let ((?x1406 (* (/ 31698152009291.0 25000000000000000.0) _a_4_)))
 (let ((?x1400 (* (/ 4736413.0 500000000000.0) _a_3_)))
 (let ((?x1395 (* (/ 221771169.0 250000000000.0) _a_2_)))
 (let ((?x1161 (* l_0_2_6 l_0_2_6)))
 (let ((?x1162 (+ (+ (* l_0_2_4 l_0_2_4) (* l_0_2_5 l_0_2_5)) ?x1161)))
 (let ((?x506 (- _a_0_)))
 (let ((?x1398 (- (+ (* ?x506 ?x1162) ?x1395) (* (* (* 2.0 _a_3_) l_0_2_1) l_0_2_4))))
 (let ((?x1407 (- (- (+ ?x1398 ?x1400) (* (* (* 2.0 _a_4_) l_0_2_1) l_0_2_2)) ?x1406)))
 (= (- (- ?x1407 (* _a_5_ ?x958)) ?x1411) 0.0))))))))))))
(assert
 (let ((?x958 (+ (* (* 2.0 l_0_2_2) l_0_2_4) (* (* 2.0 l_0_2_3) l_0_2_5))))
 (let ((?x1470 (* (/ 64009.0 1000000000000.0) _a_3_)))
 (let ((?x1161 (* l_0_2_6 l_0_2_6)))
 (let ((?x1162 (+ (+ (* l_0_2_4 l_0_2_4) (* l_0_2_5 l_0_2_5)) ?x1161)))
 (let ((?x1466 (* (- (/ 1287517.0 250000000000.0)) _a_2_)))
 (let ((?x1476 (+ (- (- (- ?x1466 (* _a_3_ ?x1162)) ?x1470) (* _a_4_ ?x958)) (* (/ 51495149512751.0 5000000000000000000.0) _a_4_))))
 (= (+ ?x1476 (* (/ 63230023432961.0 250000000000000000.0) _a_5_)) 0.0))))))))
(assert
 (let ((?x1537 (* (/ 14823540664547.0 500000000000000000.0) _a_5_)))
 (let ((?x1532 (* (/ 700086027943143.0 1000000000000000000.0) _a_4_)))
 (let ((?x1526 (* (/ 350475841.0 1000000000000.0) _a_2_)))
 (let ((?x1161 (* l_0_2_6 l_0_2_6)))
 (let ((?x1162 (+ (+ (* l_0_2_4 l_0_2_4) (* l_0_2_5 l_0_2_5)) ?x1161)))
 (let ((?x713 (- _a_2_)))
 (let ((?x1533 (- (- (+ (* ?x713 ?x1162) ?x1526) (* (* _a_4_ l_0_2_1) l_0_2_1)) ?x1532)))
 (= (+ (- ?x1533 (* (* (* 2.0 _a_5_) l_0_2_1) l_0_2_4)) ?x1537) 0.0)))))))))
(assert
 (let ((?x1577 (* (/ 104315317271.0 250000000000000000.0) _a_5_)))
 (let ((?x1161 (* l_0_2_6 l_0_2_6)))
 (let ((?x1162 (+ (+ (* l_0_2_4 l_0_2_4) (* l_0_2_5 l_0_2_5)) ?x1161)))
 (let ((?x1572 (* (/ 47339458409133.0 2500000000000000000.0) _a_4_)))
 (let ((?x1573 (+ (- (* (- (/ 4736413.0 500000000000.0)) _a_2_) (* (* (* 2.0 _a_4_) l_0_2_1) l_0_2_4)) ?x1572)))
 (= (- (- ?x1573 (* _a_5_ ?x1162)) ?x1577) 0.0)))))))
(assert
 (let ((?x1620 (* (/ 977225403.0 500000000000000000.0) _a_5_)))
 (let ((?x1617 (* (/ 127977891313853.0 1000000000000000000000.0) _a_4_)))
 (let ((?x1161 (* l_0_2_6 l_0_2_6)))
 (let ((?x1162 (+ (+ (* l_0_2_4 l_0_2_4) (* l_0_2_5 l_0_2_5)) ?x1161)))
 (let ((?x1613 (* (/ 64009.0 1000000000000.0) _a_2_)))
 (= (+ (- (- ?x1613 (* _a_4_ ?x1162)) ?x1617) ?x1620) 0.0)))))))
(assert
 (let ((?x1653 (* (/ 18721.0 1000000.0) _a_5_)))
 (let ((?x1651 (* (/ 19404709641.0 50000000000000.0) _a_4_)))
 (let ((?x1649 (- (* (* (- _a_0_) l_0_2_1) l_0_2_1) (* (* (* 2.0 _a_2_) l_0_2_1) l_0_2_2))))
 (= (+ (+ ?x1649 ?x1651) ?x1653) 0.0)))))
(assert
 (let ((?x1674 (* (/ 350475841.0 500000000000.0) _a_5_)))
 (let ((?x1672 (- (- (* (* (* (- 2.0) _a_2_) l_0_2_1) l_0_2_4) (* (/ 38758637278219.0 1250000000000000000.0) _a_4_)) (* (* _a_5_ l_0_2_1) l_0_2_1))))
 (= (- ?x1672 ?x1674) 0.0))))
(assert
 (= (+ (* (* (- _a_2_) l_0_2_1) l_0_2_1) (* (/ 350475841.0 1000000000000.0) _a_4_)) 0.0))
(assert
 (= (* (- (/ 6561258219361.0 500000000000000000.0)) _a_4_) 0.0))
(assert
 (= (+ (* (/ 6393154170117.0 8000000000000000000.0) _a_4_) (* (/ 6561258219361.0 1000000000000000000.0) _a_5_)) 0.0))
(assert
 (= (- (* (- (/ 180197214150431.0 10000000000000000000000.0)) _a_4_) (* (/ 266011163319.0 1000000000000000000.0) _a_5_)) 0.0))
(assert
 (= (+ (* (/ 22343206019563.0 125000000000000000000000.0) _a_4_) (* (/ 3594937467.0 1000000000000000000.0) _a_5_)) 0.0))
(assert
 (= (- (* (- (/ 82412675653.0 125000000000000000000000.0)) _a_4_) (* (/ 16194277.0 1000000000000000000.0) _a_5_)) 0.0))
(assert
 (= (* (/ 122833315124657.0 1000000000000000000000.0) _a_4_) 0.0))
(assert
 (= (* (- (/ 663999331799333.0 100000000000000000000000.0)) _a_4_) 0.0))
(assert
 (= (* (/ 67300824319707.0 500000000000000000000000.0) _a_4_) 0.0))
(assert
 (= (* (- (/ 303173059717.0 250000000000000000000000.0)) _a_4_) 0.0))
(assert
 (= (* (/ 4097152081.0 1000000000000000000000000.0) _a_4_) 0.0))
(assert
 (>= l_0_2_1 0.0))
(assert
 (>= l_0_2_3 0.0))
(assert
 (>= l_0_2_6 0.0))
(assert
 (>= l_0_2_7 0.0))
(assert
 (>= l_0_2_9 0.0))
(assert
 (>= l_0_2_12 0.0))
(assert
 (>= l_0_2_13 0.0))
(assert
 (>= l_0_2_15 0.0))
(assert
 (>= l_0_2_18 0.0))
(check-sat)
(get-model)